
Gurobi 11.0.2 (win64) logging started Wed Aug 14 11:13:51 2024

Set parameter LogFile to value "D:\Documenti\Scuola\Laurea magistrale unibs\laurea-unibs-mkfsp\output\2024-08-14T08_52_45.517425\logs\instance03_bucket6.log"
Set parameter TimeLimit to value 500
Set parameter MIPGap to value 0
Gurobi Optimizer version 11.0.2 build v11.0.2rc0 (win64 - Windows 10.0 (19045.2))

CPU model: Intel(R) Core(TM) i5-4670 CPU @ 3.40GHz, instruction set [SSE2|AVX|AVX2]
Thread count: 4 physical cores, 4 logical processors, using up to 4 threads

Optimize a model with 3080 rows, 16045 columns and 172105 nonzeros
Model fingerprint: 0x2f3a24d1
Variable types: 0 continuous, 16045 integer (15920 binary)
Coefficient statistics:
  Matrix range     [1e+00, 8e+03]
  Objective range  [6e+02, 8e+03]
  Bounds range     [1e+00, 1e+00]
  RHS range        [1e+00, 6e+05]
Presolve time: 0.24s
Presolved: 3080 rows, 16045 columns, 172105 nonzeros
Variable types: 0 continuous, 16045 integer (15920 binary)
Deterministic concurrent LP optimizer: primal and dual simplex
Showing primal log only...

Concurrent spin time: 0.01s

Solved with dual simplex

Root relaxation: objective 7.126350e+05, 1172 iterations, 0.13 seconds (0.14 work units)

    Nodes    |    Current Node    |     Objective Bounds      |     Work
 Expl Unexpl |  Obj  Depth IntInf | Incumbent    BestBd   Gap | It/Node Time

     0     0 712635.000    0   74          - 712635.000      -     -    1s
H    0     0                    673091.00000 712635.000  5.87%     -    1s
H    0     0                    679234.00000 712635.000  4.92%     -    1s
H    0     0                    679382.00000 712635.000  4.89%     -    1s
H    0     0                    680396.00000 712635.000  4.74%     -    1s
H    0     0                    681508.00000 712635.000  4.57%     -    1s
H    0     0                    683773.00000 712635.000  4.22%     -    1s
     0     0 712635.000    0  302 683773.000 712635.000  4.22%     -    2s
H    0     0                    699352.00000 712635.000  1.90%     -    4s
     0     0 712635.000    0  253 699352.000 712635.000  1.90%     -    4s
     0     0 712635.000    0   80 699352.000 712635.000  1.90%     -    7s
     0     0 712635.000    0  200 699352.000 712635.000  1.90%     -    7s
     0     0 712635.000    0  130 699352.000 712635.000  1.90%     -   11s
     0     0 712635.000    0  121 699352.000 712635.000  1.90%     -   11s
     0     2 712635.000    0  113 699352.000 712635.000  1.90%     -   15s
H   27    32                    700236.00000 712635.000  1.77%   680   18s
H   29    32                    700748.00000 712635.000  1.70%   665   18s
H   30    32                    700814.00000 712635.000  1.69%   645   18s
    31    49 712635.000    7  482 700814.000 712635.000  1.69%   635   20s
H  122   177                    702994.00000 712635.000  1.37%   883   22s
   180   396 712635.000   38  182 702994.000 712635.000  1.37%   676   26s
H  247   396                    703090.00000 712635.000  1.36%   552   26s
H  351   396                    703113.00000 712635.000  1.35%   440   26s
H  403   551                    704355.00000 712635.000  1.18%   404   30s
H  450   551                    704490.00000 712635.000  1.16%   404   30s
H  503   551                    705741.00000 712635.000  0.98%   379   30s
   562   909 712635.000  126  212 705741.000 712635.000  0.98%   398   35s
H  930  1026                    707110.00000 712635.000  0.78%   320   39s
  1053  1231 712635.000  231   82 707110.000 712635.000  0.78%   343   44s
  1268  1479 712635.000  282  216 707110.000 712635.000  0.78%   371   50s
  1529  1793 712635.000  331   92 707110.000 712635.000  0.78%   401   55s
  1867  1982 712635.000  394  203 707110.000 712635.000  0.78%   381   60s
H 1909  1980                    707796.00000 712635.000  0.68%   380   60s
  2072  2263 712635.000  432  199 707796.000 712635.000  0.68%   368   65s
H 2165  2263                    708483.00000 712635.000  0.59%   376   65s
H 2355  2262                    709074.00000 712635.000  0.50%   363   65s
  2385  2493 712635.000  508  201 709074.000 712635.000  0.50%   371   72s
  2649  2832 712635.000  614  190 709074.000 712635.000  0.50%   395   78s
  3021  3270 711913.000  696  208 709074.000 712635.000  0.50%   395   84s
  3508  3707 711913.000  802  171 709074.000 712635.000  0.50%   394   91s
  3990  4032 711913.000  920  220 709074.000 712635.000  0.50%   389   97s
  4370  4356 709762.000 1012  233 709074.000 712635.000  0.50%   392  104s
  4755  4790 709762.000 1062  229 709074.000 712635.000  0.50%   396  114s
H 5259  4078                    711895.00000 712635.000  0.10%   400  114s
  5261  3780 712635.000  728  121 711895.000 712635.000  0.10%   400  115s
  5263  3781 712635.000  710  102 711895.000 712635.000  0.10%   400  123s
  5264  3782 712635.000   27   51 711895.000 712635.000  0.10%   400  128s
  5265  3783 712635.000  541  162 711895.000 712635.000  0.10%   400  130s
  5267  3784 712635.000  255  145 711895.000 712635.000  0.10%   400  135s
  5269  3785 712635.000   19  115 711895.000 712635.000  0.10%   400  140s
H 5269  3595                    712635.00000 712635.000  0.00%   400  143s

Cutting planes:
  Gomory: 1
  Lift-and-project: 1
  Cover: 1
  StrongCG: 3
  Flow cover: 3
  RLT: 2

Explored 5269 nodes (2299979 simplex iterations) in 143.37 seconds (165.91 work units)
Thread count was 4 (of 4 available processors)

Solution count 10: 712635 711895 709074 ... 703113

Optimal solution found (tolerance 0.00e+00)
Best objective 7.126350000000e+05, best bound 7.126350000000e+05, gap 0.0000%
